StudentsNr = 50;
InstructorsNr = 25;
DaysNr = 9;
SlotsPerDay = 20;
AvailabilitySlotsLenght = 20;
RoomNr = 4;
ProgrammNr = 2;
DegreeNr = 2;
RolesNr = 2;
CoursesNr = 15;
InstructorsProgramm = [{1}, {1}, {1, 2}, {1, 2}, {1}, {2}, {1}, {1}, {2}, {1}, {2}, {1}, {1}, {1}, {1}, {1, 2}, {2}, {1}, {2}, {1, 2}, {2}, {1, 2}, {2}, {2}, {1}];
InstructorRolesPerProgramm = [|{1, 4, 7, 14, 15, 22, 25}, {4, 5, 8, 13, 14, 15, 16, 20, 25}|{4, 6, 19, 22, 23}, {4, 9, 11, 16, 19, 20}|];
InstructorsAvailability = [|0, 1, 0, 0, 1, 1, 1, 1, 1, |1, 1, 1, 1, 0, 0, 1, 1, 1, |1, 1, 1, 1, 1, 1, 1, 1, 1, |1, 1, 1, 1, 1, 1, 1, 1, 0, |1, 0, 1, 1, 1, 1, 1, 1, 1, |1, 0, 0, 0, 0, 1, 1, 1, 1, |1, 1, 1, 1, 1, 1, 1, 1, 0, |0, 1, 1, 1, 1, 0, 0, 1, 1, |1, 1, 1, 0, 1, 1, 1, 1, 0, |1, 1, 1, 1, 0, 0, 1, 1, 1, |1, 0, 1, 1, 1, 1, 1, 1, 1, |1, 1, 0, 1, 1, 0, 0, 0, 1, |1, 1, 1, 1, 1, 1, 1, 1, 1, |0, 1, 1, 1, 0, 1, 1, 1, 1, |1, 1, 1, 1, 0, 0, 1, 0, 1, |1, 1, 0, 1, 1, 1, 0, 1, 1, |1, 0, 1, 1, 1, 1, 1, 1, 1, |1, 1, 1, 0, 0, 1, 1, 1, 1, |0, 0, 0, 1, 1, 1, 0, 0, 1, |1, 1, 1, 1, 1, 1, 1, 1, 1, |0, 1, 1, 1, 1, 0, 1, 1, 1, |1, 1, 1, 0, 0, 0, 1, 1, 1, |1, 1, 1, 1, 0, 0, 1, 1, 1, |1, 1, 0, 1, 1, 1, 1, 1, 1, |0, 1, 1, 1, 1, 1, 1, 1, 1|];
StudentsProgramm = [2, 2, 1, 2, 1, 1, 2, 1, 2, 2, 2, 1, 1, 2, 2, 1, 1, 2, 2, 2, 1, 1, 2, 1, 2, 1, 1, 2, 1, 1, 2, 1, 2, 2, 1, 2, 2, 2, 2, 1, 1, 2, 2, 2, 1, 2, 2, 2, 2, 1];
StudentsDegree = [2, 1, 2, 1, 1, 2, 2, 1, 2, 1, 2, 1, 1, 2, 1, 1, 2, 1, 1, 1, 2, 1, 1, 2, 1, 2, 1, 2, 1, 1, 2, 1, 1, 1, 2, 2, 1, 1, 1, 2, 2, 1, 1, 2, 2, 2, 2, 2, 1, 2];
StudentsSupervisorId = [22, 19, 1, 6, 3, 12, 16, 16, 4, 19, 16, 16, 20, 16, 3, 13, 1, 4, 11, 23, 16, 7, 9, 18, 11, 13, 4, 19, 18, 10, 4, 20, 9, 22, 18, 17, 22, 17, 17, 1, 15, 6, 16, 19, 12, 23, 24, 9, 24, 20];
StudentsCourseIds = [{1, 2, 3, 7, 14}, {3, 4, 6, 8, 12, 13, 14}, {3, 6, 7, 8, 9}, {3, 6, 9, 10, 11, 14, 15}, {2, 3, 5, 8, 11, 12, 15}, {1, 3, 4, 6, 15}, {1, 2, 3, 8, 10}, {2, 3, 8, 11, 12, 13, 15}, {5, 9, 13, 14, 15}, {3, 7, 9, 10, 11, 14, 15}, {2, 7, 8, 11, 14}, {1, 3, 6, 7, 10, 14, 15}, {1, 3, 6, 7, 11, 13, 15}, {4, 6, 9, 10, 11}, {1, 3, 6, 9, 10, 12, 15}, {1, 6, 9, 10, 11, 12, 13}, {1, 5, 8, 10, 14}, {4, 6, 7, 12, 13, 14, 15}, {1, 4, 5, 6, 7, 8, 12}, {1, 4, 5, 7, 11, 13, 14}, {5, 6, 8, 9, 11}, {1, 3, 4, 5, 7, 8, 15}, {1, 6, 8, 9, 10, 11, 13}, {5, 10, 13, 14, 15}, {2, 5, 9, 12, 13, 14, 15}, {3, 11, 13, 14, 15}, {2, 3, 4, 7, 9, 11, 12}, {5, 8, 10, 11, 14}, {2, 3, 4, 8, 11, 13, 15}, {1, 4, 7, 10, 11, 13, 14}, {2, 7, 9, 10, 15}, {2, 3, 4, 9, 13, 14, 15}, {1, 3, 7, 8, 9, 13, 15}, {1, 2, 3, 5, 12, 14, 15}, {4, 5, 6, 9, 12}, {2, 3, 5, 9, 12}, {2, 3, 4, 6, 8, 14, 15}, {3, 4, 6, 7, 8, 9, 12}, {1, 3, 4, 8, 11, 13, 14}, {5, 6, 9, 11, 15}, {3, 4, 9, 10, 12}, {2, 4, 5, 6, 7, 8, 15}, {2, 3, 5, 9, 12, 14, 15}, {1, 5, 11, 13, 14}, {2, 4, 6, 13, 15}, {2, 5, 7, 11, 13}, {3, 7, 10, 11, 12}, {2, 5, 9, 10, 11}, {3, 5, 6, 10, 11, 13, 14}, {7, 8, 9, 14, 15}];
StudentsAvailability = [|1, 1, 1, 1, 1, 1, 1, 1, 1, |1, 1, 1, 1, 1, 1, 1, 1, 1, |1, 1, 1, 0, 1, 1, 1, 1, 1, |1, 0, 0, 1, 1, 1, 1, 1, 0, |1, 1, 1, 1, 1, 1, 1, 1, 1, |1, 1, 1, 1, 1, 1, 1, 1, 1, |1, 1, 1, 1, 1, 1, 1, 1, 1, |1, 1, 1, 1, 1, 1, 1, 1, 1, |1, 1, 1, 1, 0, 1, 0, 1, 1, |1, 0, 1, 1, 1, 1, 0, 1, 1, |1, 1, 1, 0, 1, 1, 1, 1, 1, |1, 1, 1, 1, 1, 1, 1, 1, 1, |0, 1, 1, 1, 1, 1, 1, 1, 1, |1, 1, 1, 1, 1, 1, 1, 1, 1, |1, 0, 1, 1, 1, 1, 1, 1, 1, |1, 0, 1, 1, 1, 1, 1, 1, 0, |0, 0, 1, 1, 1, 1, 1, 1, 1, |1, 1, 1, 1, 1, 1, 1, 1, 1, |1, 1, 1, 1, 1, 1, 1, 1, 1, |1, 1, 1, 1, 1, 0, 0, 0, 1, |1, 1, 1, 1, 1, 1, 1, 1, 1, |1, 1, 0, 1, 1, 0, 1, 1, 1, |1, 1, 1, 1, 1, 1, 1, 1, 1, |1, 0, 1, 1, 1, 1, 1, 1, 1, |1, 1, 1, 1, 1, 1, 1, 1, 0, |1, 1, 0, 1, 1, 1, 1, 1, 1, |1, 1, 0, 1, 0, 0, 1, 1, 1, |1, 1, 0, 1, 1, 0, 1, 1, 1, |1, 1, 1, 1, 1, 1, 1, 1, 1, |0, 0, 0, 0, 0, 1, 1, 1, 1, |1, 1, 1, 1, 1, 1, 1, 1, 1, |0, 0, 1, 1, 0, 1, 1, 1, 0, |1, 1, 1, 1, 1, 1, 1, 1, 1, |1, 0, 1, 1, 1, 1, 1, 1, 1, |0, 1, 1, 1, 1, 1, 0, 1, 1, |1, 1, 1, 0, 0, 1, 1, 1, 0, |1, 1, 1, 1, 1, 1, 1, 1, 1, |0, 1, 1, 1, 1, 1, 1, 1, 1, |1, 1, 1, 1, 1, 1, 1, 0, 0, |1, 1, 1, 0, 1, 0, 1, 1, 0, |1, 1, 1, 1, 0, 1, 0, 0, 1, |1, 1, 1, 0, 0, 1, 1, 1, 1, |1, 1, 1, 1, 1, 1, 1, 0, 0, |1, 1, 1, 1, 1, 1, 1, 1, 1, |1, 1, 0, 1, 1, 1, 0, 1, 1, |1, 1, 1, 1, 1, 1, 1, 1, 0, |0, 0, 1, 1, 1, 1, 1, 1, 1, |0, 1, 1, 1, 1, 1, 1, 1, 1, |0, 1, 1, 1, 1, 1, 1, 1, 1, |1, 1, 1, 1, 1, 1, 1, 1, 1|];
TheoryticalMinCard = [0, 0, 0, 1, 0, 0, 0, 0, 0, 1, 1, 0, 0, 1, 0, 0, 0, 0, 0, 1, 0, 0, 1, 1, 0, 0, 0, 1, 0, 0, 0, 0, 0, 0, 0, 0, 0, 0, 1, 0, 0, 0, 0, 1, 0, 1, 1, 1, 2, 0];
CoursesInstructorIds = [{5, 6, 10, 11, 13, 14, 19, 20, 21, 22, 23}, {4, 5, 7, 9, 11, 12, 13, 15, 16, 17, 19, 20, 21, 22}, {7, 8, 9, 11, 13, 16, 18, 21}, {1, 7, 8, 11, 12, 13, 14, 15, 16, 18, 22}, {1, 2, 3, 5, 7, 9, 10, 11, 13, 14, 16, 17, 20, 21, 23, 25}, {2, 4, 6, 7, 9, 10, 14, 15, 16, 17, 19, 20, 21, 23, 25}, {1, 2, 4, 6, 7, 8, 9, 10, 11, 13, 17, 18, 23}, {4, 5, 8, 12, 20, 22}, {1, 3, 8, 9, 10, 11, 13, 14, 15, 16, 18, 21, 22, 23}, {1, 2, 4, 5, 6, 9, 10, 12, 15, 17, 19, 21, 22, 23, 25}, {3, 13, 25}, {2, 3, 6, 7, 8, 9, 10, 12, 13, 15, 16, 17, 20, 24}, {3, 4, 8, 9, 10, 12, 15, 16, 19, 25}, {2, 6, 7, 10, 13, 14, 17, 19, 20, 21}, {8, 23}];
RolesDemands = [2, 5];
RolesContinuity = [];
ExamLen = [3, 2, 3, 2, 2, 3, 3, 2, 3, 2, 3, 2, 2, 3, 2, 2, 3, 2, 2, 2, 3, 2, 2, 3, 2, 3, 2, 3, 2, 2, 3, 2, 2, 2, 3, 3, 2, 2, 2, 3, 3, 2, 2, 3, 3, 3, 3, 3, 2, 3];
LunchTsMinLen = 1;
LunchStarts = [9..11, 25..34, 49..53, 67..72, 89..94, 107..113, 128..135, 148..154, 167..172];
SupervisorAvailable = 5;
OptimalLunchLenght = [3, 3];
OptimalStartTs = [2, 0];
OptimalFinishTs = [2, 20];
MinimizeRooms = 400;
RolesSoftContinuity = [|1, 2|0, 3|];
SameDegreeInRoom = 10;
Mergeability = 1;
